#######################################
### Exact MIP solver for the HHCRSP ###
#######################################
-- Instance file: new-instances/HHCRSP_400_80_33_0.8_R_C.txt
-- Max threads: 4
-- Time limit: 999999 seconds
-- Use initial solution: No
Trivial flow violations prevented generating 2833856 variables.
Version identifier: 20.1.0.0 | 2020-11-10 | 9bedb6d68
CPXPARAM_Threads                                 4
CPXPARAM_Emphasis_Memory                         1
CPXPARAM_TimeLimit                               999999
Tried aggregator 1 time.
Presolve has eliminated 86406 rows and 19138 columns...
LP Presolve eliminated 86406 rows and 19138 columns.
Reduced LP has 3169058 rows, 3001770 columns, and 91417471 nonzeros.
Presolve time = 98.48 sec. (19346.67 ticks)
Compression time = 23.10 sec. (5.99 ticks)
Compression reduced 1316.19 MB A matrix to 396.91 MB
Symmetry aggregator did 5434696 additional substitutions.
Elapsed time = 123.10 sec. (20168.13 ticks, 1 iterations)

Iteration log . . .
Iteration:     1   Dual objective     =             0.000000
Iteration:  1839   Dual objective     =           397.250000

Dual crossover.
  Dual:  Fixing 3213 variables.
     3212 DMoves:  Infeasibility  5.46446223e-12  Objective  4.00333333e+02
        0 DMoves:  Infeasibility  2.24262277e-12  Objective  4.00333333e+02
  Dual:  Pushed 56, exchanged 3157.
  Primal:  Fixing 2053 variables.
     2052 PMoves:  Infeasibility  4.16333634e-16  Objective  4.00333333e+02
        0 PMoves:  Infeasibility  4.16333634e-16  Objective  4.00333333e+02
  Primal:  Pushed 1873, exchanged 180.

Solution status from MIP model:
-- Processing time: 166.029 sec.
-- Memory used: 2035.27 MB
-- Best bound: inf
-- Obj value: 400.333
-- Gap: inf%
-- Total distance: 1201
-- Total tardiness: 0
-- Largest tardiness: 0
